c User generated cnf file
p cnf 4 18
3 -3 1 0 
1 -3 2 0 
1 -4 2 0 
3 3 -4 0 
1 1 -4 0 
2 2 -3 0 
4 2 -2 0 
3 2 -2 0 
2 -1 3 0 
1 4 -4 0 
3 -4 4 0 
3 -1 3 0 
1 1 -4 0 
3 -2 4 0 
1 -2 3 0 
4 2 -3 0 
1 2 -2 0 
2 -3 3 0 
